n=20;
demand=2;
horizon=20;
est=[14,1,19,7,2,3,4,12,6,9,16,18,8,13,4,0,18,0,5,6];
processing_time=[2,15,1,8,5,3,16,8,9,10,2,2,1,3,14,17,1,17,5,6];
lct=[17,16,20,20,15,13,20,20,18,19,18,20,15,17,20,20,19,17,13,16];
